n_res = 4;
rcap = [30, 34, 184, 163];
rtype = [1, 1, 2, 2];
n_tasks = 30;
modes = [ {1, 2, 3}, {4, 5, 6}, {7, 8, 9}, {10, 11, 12}, {13, 14, 15}, {16, 17, 18}, {19, 20, 21}, {22, 23, 24}, {25, 26, 27}, {28, 29, 30}, {31, 32, 33}, {34, 35, 36}, {37, 38, 39}, {40, 41, 42}, {43, 44, 45}, {46, 47, 48}, {49, 50, 51}, {52, 53, 54}, {55, 56, 57}, {58, 59, 60}, {61, 62, 63}, {64, 65, 66}, {67, 68, 69}, {70, 71, 72}, {73, 74, 75}, {76, 77, 78}, {79, 80, 81}, {82, 83, 84}, {85, 86, 87}, {88, 89, 90} ];
succ = [ {4, 9, 10}, {12, 21, 30}, {8, 19, 26}, {5}, {6, 12, 18}, {7, 14, 20}, {13, 16, 21}, {11, 22}, {15, 16, 19}, {11}, {17, 18}, {29}, {17, 24}, {15, 16}, {23, 26}, {26, 28}, {27, 28}, {25, 27}, {20, 23}, {22, 29}, {29}, {24}, {24, 28}, {25}, {30}, {27}, {30}, {}, {}, {} ];
n_opt = 90;
dur = [2, 7, 8, 2, 6, 8, 6, 6, 7, 4, 5, 8, 1, 3, 10, 1, 3, 3, 1, 5, 6, 4, 4, 6, 4, 4, 7, 1, 2, 8, 1, 4, 9, 2, 9, 10, 2, 4, 8, 1, 1, 8, 2, 7, 8, 1, 3, 8, 3, 6, 8, 4, 4, 10, 1, 2, 3, 2, 7, 8, 2, 4, 10, 2, 6, 9, 4, 6, 7, 3, 6, 6, 3, 7, 9, 4, 7, 7, 2, 3, 3, 1, 3, 10, 3, 3, 6, 3, 7, 8];
rreq = [|  9,  9,  7, 10,  9,  8,  4,  5,  3,  5,  3,  2,  7,  5,  2,  2,  2,  2,  5,  4,  2,  5,  5,  4,  5,  4,  3,  8,  6,  3, 10, 10, 10,  8,  7,  4,  7,  6,  6,  8,  7,  5,  5,  4,  4,  7,  7,  4,  4,  4,  1,  2,  2,  2,  8,  7,  4,  4,  3,  2,  8,  7,  7,  2,  2,  2, 10, 10,  9,  8,  6,  5,  7,  7,  6,  6,  6,  5,  5,  4,  5,  5,  4,  1,  2,  2,  1,  8,  7,  7
        |  6,  5,  1,  6,  6,  6,  9,  8,  6,  5,  4,  1,  7,  5,  3,  1,  1,  1,  8,  5,  5,  3,  2,  2,  5,  5,  5,  6,  5,  3,  6,  6,  6,  4,  2,  2,  7,  7,  2,  8,  7,  2,  9,  6,  3,  7,  4,  1,  7,  4,  1,  3,  4,  3,  9,  6,  5,  8,  7,  5,  8,  8,  7,  2,  2,  1,  7,  5,  4,  9,  7,  8,  7,  5,  2,  8,  4,  6,  5,  5,  5,  5,  4,  2,  9, 10,  8,  4,  3,  2
        |  6,  4,  2,  4,  3,  3,  4,  4,  4, 10,  6,  5, 10,  9,  8,  7,  3,  2,  5,  5,  5,  5,  6,  5,  6,  6,  4,  9,  7,  5,  5,  5,  5,  9,  9,  9,  5,  4,  1,  5,  7,  3,  6,  6,  3, 10,  8,  4,  4,  3,  2,  8,  8,  7,  5,  4,  2,  6,  6,  4,  6,  6,  6,  9,  8,  7,  6,  6,  5,  4,  4,  4,  8,  5,  2,  8,  6,  6,  6,  4,  3,  8,  8,  7,  6,  6,  5,  8,  6,  5
        |  4,  4,  3,  6,  5,  5,  7,  8,  6,  7,  5,  3, 10,  9,  9,  6,  4,  5,  6,  4,  2,  6,  6,  5,  4,  5,  1,  5,  4,  3,  7,  4,  2,  6,  4,  4,  8,  7,  6,  5,  6,  5,  4,  3,  2,  6,  5,  4, 10,  6,  5,  7,  6,  4,  8,  4,  4,  4,  3,  2,  6,  6,  5,  3,  3,  2,  7,  5,  3,  7,  6,  7,  8,  8,  6,  5,  5,  5,  4,  3,  3,  4,  3,  2,  5,  4,  4,  1,  1,  1 |];
